c Standarized MaxSat Instance
c{
c "sha1sum": "6f6357e14f965250f484143ae0113fe60dc10d34",
c "nvars": 43,
c "ncls": 1212,
c "nhards": 0,
c "nhard_len_stats":
c    { "min": 0, "max": 0, "ave": 0.00,
c      "stddev": 0.00 },
c "nsofts": 1212,
c "nsoft_len_stats":
c    { "min": 2, "max": 2, "ave": 2.00,
c      "stddev": 0.00 },
c "nsoft_wts": 10,
c "soft_wt_stats":
c    { "min": 1, "max": 10, "ave": 5.70,
c      "stddev": 2.81 }
c}
c------------------------------------------------------------
c
c File: keller4.clq
c Source Peter Shor (AT&T Bell Laboratories) shor@research.att.com
c Reference:
c J.C. Lagarias and P.W. Shor, "Keller's cube-packing conjecture is
c false in high dimensions, " Bull. AMS (New Series), Vol. 27, No. 2,
c 279-283, 1992.
c
c K. Corradi and S. Szabo, "A combinatorial appraoch for Keller's conjecture,"
c Period. Math. Hungar. Vol. 21, 91-100, 1990.
c
c Largest Clique: 11
c
p wcnf 43 1212 6905
9 1 4 0
9 -1 -4 0
4 1 5 0
4 -1 -5 0
8 1 6 0
8 -1 -6 0
8 1 7 0
8 -1 -7 0
10 1 10 0
10 -1 -10 0
2 1 11 0
2 -1 -11 0
4 1 13 0
4 -1 -13 0
8 1 14 0
8 -1 -14 0
3 1 15 0
3 -1 -15 0
6 1 16 0
6 -1 -16 0
5 1 19 0
5 -1 -19 0
7 1 21 0
7 -1 -21 0
4 1 22 0
4 -1 -22 0
6 1 23 0
6 -1 -23 0
10 1 24 0
10 -1 -24 0
10 1 25 0
10 -1 -25 0
7 1 26 0
7 -1 -26 0
8 1 27 0
8 -1 -27 0
2 1 28 0
2 -1 -28 0
7 1 29 0
7 -1 -29 0
1 1 30 0
1 -1 -30 0
3 1 31 0
3 -1 -31 0
2 1 32 0
2 -1 -32 0
9 1 33 0
9 -1 -33 0
2 1 34 0
2 -1 -34 0
5 1 35 0
5 -1 -35 0
2 1 36 0
2 -1 -36 0
2 1 38 0
2 -1 -38 0
10 1 39 0
10 -1 -39 0
3 1 40 0
3 -1 -40 0
6 1 41 0
6 -1 -41 0
9 2 4 0
9 -2 -4 0
7 2 5 0
7 -2 -5 0
3 2 6 0
3 -2 -6 0
7 2 7 0
7 -2 -7 0
6 2 8 0
6 -2 -8 0
5 2 10 0
5 -2 -10 0
10 2 13 0
10 -2 -13 0
3 2 14 0
3 -2 -14 0
8 2 15 0
8 -2 -15 0
6 2 16 0
6 -2 -16 0
8 2 19 0
8 -2 -19 0
5 2 20 0
5 -2 -20 0
9 2 21 0
9 -2 -21 0
3 2 23 0
3 -2 -23 0
4 2 24 0
4 -2 -24 0
9 2 25 0
9 -2 -25 0
10 2 26 0
10 -2 -26 0
1 2 27 0
1 -2 -27 0
10 2 28 0
10 -2 -28 0
6 2 29 0
6 -2 -29 0
1 2 30 0
1 -2 -30 0
2 2 31 0
2 -2 -31 0
7 2 32 0
7 -2 -32 0
9 2 33 0
9 -2 -33 0
4 2 34 0
4 -2 -34 0
1 2 35 0
1 -2 -35 0
1 2 38 0
1 -2 -38 0
5 2 39 0
5 -2 -39 0
1 2 40 0
1 -2 -40 0
3 2 41 0
3 -2 -41 0
10 3 4 0
10 -3 -4 0
10 3 8 0
10 -3 -8 0
9 3 9 0
9 -3 -9 0
3 3 13 0
3 -3 -13 0
6 3 17 0
6 -3 -17 0
4 3 18 0
4 -3 -18 0
8 3 19 0
8 -3 -19 0
6 3 20 0
6 -3 -20 0
7 3 21 0
7 -3 -21 0
6 3 22 0
6 -3 -22 0
1 3 23 0
1 -3 -23 0
5 3 24 0
5 -3 -24 0
10 3 25 0
10 -3 -25 0
10 3 26 0
10 -3 -26 0
8 3 27 0
8 -3 -27 0
3 3 28 0
3 -3 -28 0
8 3 29 0
8 -3 -29 0
7 3 30 0
7 -3 -30 0
4 3 31 0
4 -3 -31 0
7 3 32 0
7 -3 -32 0
2 3 33 0
2 -3 -33 0
5 3 34 0
5 -3 -34 0
9 3 38 0
9 -3 -38 0
9 3 42 0
9 -3 -42 0
4 3 43 0
4 -3 -43 0
3 4 9 0
3 -4 -9 0
9 4 10 0
9 -4 -10 0
4 4 11 0
4 -4 -11 0
7 4 12 0
7 -4 -12 0
10 4 15 0
10 -4 -15 0
6 4 18 0
6 -4 -18 0
7 4 19 0
7 -4 -19 0
9 4 20 0
9 -4 -20 0
5 4 21 0
5 -4 -21 0
10 4 22 0
10 -4 -22 0
4 4 23 0
4 -4 -23 0
9 4 24 0
9 -4 -24 0
7 4 25 0
7 -4 -25 0
10 4 26 0
10 -4 -26 0
5 4 27 0
5 -4 -27 0
3 4 28 0
3 -4 -28 0
10 4 29 0
10 -4 -29 0
10 4 30 0
10 -4 -30 0
2 4 31 0
2 -4 -31 0
9 4 32 0
9 -4 -32 0
7 4 33 0
7 -4 -33 0
5 4 34 0
5 -4 -34 0
7 4 35 0
7 -4 -35 0
3 4 36 0
3 -4 -36 0
8 4 37 0
8 -4 -37 0
4 4 40 0
4 -4 -40 0
5 4 43 0
5 -4 -43 0
3 5 9 0
3 -5 -9 0
2 5 10 0
2 -5 -10 0
3 5 11 0
3 -5 -11 0
6 5 16 0
6 -5 -16 0
5 5 19 0
5 -5 -19 0
2 5 20 0
2 -5 -20 0
10 5 21 0
10 -5 -21 0
2 5 22 0
2 -5 -22 0
2 5 23 0
2 -5 -23 0
5 5 24 0
5 -5 -24 0
8 5 25 0
8 -5 -25 0
10 5 26 0
10 -5 -26 0
10 5 27 0
10 -5 -27 0
7 5 28 0
7 -5 -28 0
4 5 29 0
4 -5 -29 0
8 5 30 0
8 -5 -30 0
4 5 31 0
4 -5 -31 0
3 5 32 0
3 -5 -32 0
3 5 33 0
3 -5 -33 0
6 5 34 0
6 -5 -34 0
3 5 35 0
3 -5 -35 0
2 5 36 0
2 -5 -36 0
8 5 41 0
8 -5 -41 0
2 6 9 0
2 -6 -9 0
8 6 10 0
8 -6 -10 0
2 6 11 0
2 -6 -11 0
8 6 13 0
8 -6 -13 0
1 6 17 0
1 -6 -17 0
10 6 19 0
10 -6 -19 0
1 6 20 0
1 -6 -20 0
6 6 21 0
6 -6 -21 0
2 6 22 0
2 -6 -22 0
3 6 23 0
3 -6 -23 0
8 6 24 0
8 -6 -24 0
8 6 25 0
8 -6 -25 0
7 6 26 0
7 -6 -26 0
10 6 27 0
10 -6 -27 0
7 6 28 0
7 -6 -28 0
8 6 29 0
8 -6 -29 0
1 6 30 0
1 -6 -30 0
2 6 31 0
2 -6 -31 0
6 6 32 0
6 -6 -32 0
1 6 33 0
1 -6 -33 0
1 6 34 0
1 -6 -34 0
3 6 35 0
3 -6 -35 0
5 6 36 0
5 -6 -36 0
9 6 38 0
9 -6 -38 0
6 6 42 0
6 -6 -42 0
8 7 8 0
8 -7 -8 0
1 7 9 0
1 -7 -9 0
2 7 10 0
2 -7 -10 0
10 7 11 0
10 -7 -11 0
3 7 14 0
3 -7 -14 0
9 7 19 0
9 -7 -19 0
2 7 20 0
2 -7 -20 0
10 7 21 0
10 -7 -21 0
1 7 22 0
1 -7 -22 0
9 7 23 0
9 -7 -23 0
1 7 24 0
1 -7 -24 0
1 7 25 0
1 -7 -25 0
10 7 26 0
10 -7 -26 0
6 7 27 0
6 -7 -27 0
2 7 28 0
2 -7 -28 0
2 7 29 0
2 -7 -29 0
4 7 30 0
4 -7 -30 0
10 7 31 0
10 -7 -31 0
9 7 32 0
9 -7 -32 0
4 7 33 0
4 -7 -33 0
6 7 34 0
6 -7 -34 0
6 7 35 0
6 -7 -35 0
5 7 36 0
5 -7 -36 0
7 7 39 0
7 -7 -39 0
1 8 10 0
1 -8 -10 0
6 8 11 0
6 -8 -11 0
8 8 12 0
8 -8 -12 0
4 8 13 0
4 -8 -13 0
10 8 14 0
10 -8 -14 0
6 8 15 0
6 -8 -15 0
9 8 16 0
9 -8 -16 0
8 8 19 0
8 -8 -19 0
7 8 20 0
7 -8 -20 0
1 8 21 0
1 -8 -21 0
8 8 22 0
8 -8 -22 0
9 8 23 0
9 -8 -23 0
10 8 24 0
10 -8 -24 0
9 8 25 0
9 -8 -25 0
9 8 26 0
9 -8 -26 0
10 8 27 0
10 -8 -27 0
8 8 28 0
8 -8 -28 0
10 8 29 0
10 -8 -29 0
10 8 30 0
10 -8 -30 0
7 8 31 0
7 -8 -31 0
5 8 33 0
5 -8 -33 0
2 8 34 0
2 -8 -34 0
9 8 35 0
9 -8 -35 0
9 8 36 0
9 -8 -36 0
1 8 37 0
1 -8 -37 0
7 8 38 0
7 -8 -38 0
3 8 39 0
3 -8 -39 0
7 8 40 0
7 -8 -40 0
3 8 41 0
3 -8 -41 0
8 9 12 0
8 -9 -12 0
4 9 13 0
4 -9 -13 0
4 9 17 0
4 -9 -17 0
3 9 19 0
3 -9 -19 0
1 9 20 0
1 -9 -20 0
7 9 21 0
7 -9 -21 0
3 9 22 0
3 -9 -22 0
7 9 23 0
7 -9 -23 0
6 9 24 0
6 -9 -24 0
10 9 25 0
10 -9 -25 0
3 9 26 0
3 -9 -26 0
6 9 27 0
6 -9 -27 0
8 9 28 0
8 -9 -28 0
2 9 29 0
2 -9 -29 0
5 9 30 0
5 -9 -30 0
6 9 31 0
6 -9 -31 0
10 9 32 0
10 -9 -32 0
5 9 33 0
5 -9 -33 0
4 9 34 0
4 -9 -34 0
9 9 37 0
9 -9 -37 0
5 9 38 0
5 -9 -38 0
1 9 42 0
1 -9 -42 0
4 10 11 0
4 -10 -11 0
6 10 13 0
6 -10 -13 0
9 10 14 0
9 -10 -14 0
3 10 16 0
3 -10 -16 0
7 10 17 0
7 -10 -17 0
5 10 18 0
5 -10 -18 0
5 10 19 0
5 -10 -19 0
4 10 20 0
4 -10 -20 0
8 10 21 0
8 -10 -21 0
2 10 22 0
2 -10 -22 0
7 10 23 0
7 -10 -23 0
1 10 24 0
1 -10 -24 0
5 10 25 0
5 -10 -25 0
7 10 26 0
7 -10 -26 0
7 10 27 0
7 -10 -27 0
7 10 28 0
7 -10 -28 0
4 10 29 0
4 -10 -29 0
2 10 30 0
2 -10 -30 0
7 10 31 0
7 -10 -31 0
7 10 32 0
7 -10 -32 0
8 10 33 0
8 -10 -33 0
4 10 34 0
4 -10 -34 0
8 10 36 0
8 -10 -36 0
3 10 37 0
3 -10 -37 0
10 10 38 0
10 -10 -38 0
7 10 39 0
7 -10 -39 0
7 10 40 0
7 -10 -40 0
3 10 41 0
3 -10 -41 0
6 10 42 0
6 -10 -42 0
1 10 43 0
1 -10 -43 0
3 11 13 0
3 -11 -13 0
9 11 14 0
9 -11 -14 0
7 11 15 0
7 -11 -15 0
1 11 16 0
1 -11 -16 0
2 11 20 0
2 -11 -20 0
4 11 24 0
4 -11 -24 0
6 11 27 0
6 -11 -27 0
6 11 28 0
6 -11 -28 0
7 11 29 0
7 -11 -29 0
3 11 30 0
3 -11 -30 0
8 11 32 0
8 -11 -32 0
3 11 35 0
3 -11 -35 0
4 11 37 0
4 -11 -37 0
2 11 38 0
2 -11 -38 0
10 11 39 0
10 -11 -39 0
1 11 40 0
1 -11 -40 0
9 11 41 0
9 -11 -41 0
4 11 42 0
4 -11 -42 0
2 11 43 0
2 -11 -43 0
5 12 13 0
5 -12 -13 0
10 12 17 0
10 -12 -17 0
10 12 18 0
10 -12 -18 0
8 12 19 0
8 -12 -19 0
7 12 23 0
7 -12 -23 0
2 12 27 0
2 -12 -27 0
7 12 31 0
7 -12 -31 0
4 12 32 0
4 -12 -32 0
8 12 33 0
8 -12 -33 0
10 12 34 0
10 -12 -34 0
10 12 35 0
10 -12 -35 0
9 12 36 0
9 -12 -36 0
3 12 38 0
3 -12 -38 0
8 12 39 0
8 -12 -39 0
6 12 40 0
6 -12 -40 0
3 12 41 0
3 -12 -41 0
10 12 42 0
10 -12 -42 0
10 12 43 0
10 -12 -43 0
9 13 17 0
9 -13 -17 0
5 13 18 0
5 -13 -18 0
6 13 19 0
6 -13 -19 0
2 13 20 0
2 -13 -20 0
3 13 21 0
3 -13 -21 0
9 13 22 0
9 -13 -22 0
5 13 23 0
5 -13 -23 0
5 13 24 0
5 -13 -24 0
9 13 25 0
9 -13 -25 0
5 13 26 0
5 -13 -26 0
3 13 27 0
3 -13 -27 0
2 13 28 0
2 -13 -28 0
7 13 29 0
7 -13 -29 0
8 13 30 0
8 -13 -30 0
2 13 31 0
2 -13 -31 0
7 13 32 0
7 -13 -32 0
5 13 33 0
5 -13 -33 0
9 13 34 0
9 -13 -34 0
8 13 35 0
8 -13 -35 0
2 13 36 0
2 -13 -36 0
3 13 37 0
3 -13 -37 0
5 13 39 0
5 -13 -39 0
2 13 40 0
2 -13 -40 0
2 13 41 0
2 -13 -41 0
4 13 42 0
4 -13 -42 0
4 13 43 0
4 -13 -43 0
10 14 17 0
10 -14 -17 0
10 14 18 0
10 -14 -18 0
7 14 19 0
7 -14 -19 0
9 14 20 0
9 -14 -20 0
9 14 21 0
9 -14 -21 0
5 14 22 0
5 -14 -22 0
4 14 23 0
4 -14 -23 0
4 14 24 0
4 -14 -24 0
7 14 25 0
7 -14 -25 0
7 14 26 0
7 -14 -26 0
3 14 27 0
3 -14 -27 0
2 14 28 0
2 -14 -28 0
1 14 29 0
1 -14 -29 0
2 14 30 0
2 -14 -30 0
7 14 31 0
7 -14 -31 0
4 14 32 0
4 -14 -32 0
3 14 33 0
3 -14 -33 0
4 14 34 0
4 -14 -34 0
1 14 35 0
1 -14 -35 0
5 14 36 0
5 -14 -36 0
10 14 37 0
10 -14 -37 0
6 14 38 0
6 -14 -38 0
3 14 40 0
3 -14 -40 0
7 14 41 0
7 -14 -41 0
8 14 42 0
8 -14 -42 0
5 14 43 0
5 -14 -43 0
2 15 17 0
2 -15 -17 0
9 15 18 0
9 -15 -18 0
7 15 19 0
7 -15 -19 0
6 15 20 0
6 -15 -20 0
3 15 21 0
3 -15 -21 0
6 15 22 0
6 -15 -22 0
5 15 23 0
5 -15 -23 0
9 15 24 0
9 -15 -24 0
4 15 25 0
4 -15 -25 0
3 15 26 0
3 -15 -26 0
4 15 27 0
4 -15 -27 0
8 15 28 0
8 -15 -28 0
7 15 29 0
7 -15 -29 0
10 15 30 0
10 -15 -30 0
4 15 31 0
4 -15 -31 0
9 15 32 0
9 -15 -32 0
2 15 33 0
2 -15 -33 0
5 15 34 0
5 -15 -34 0
1 15 35 0
1 -15 -35 0
8 15 36 0
8 -15 -36 0
8 15 37 0
8 -15 -37 0
3 15 38 0
3 -15 -38 0
2 15 39 0
2 -15 -39 0
9 15 41 0
9 -15 -41 0
8 15 42 0
8 -15 -42 0
1 15 43 0
1 -15 -43 0
5 16 17 0
5 -16 -17 0
10 16 18 0
10 -16 -18 0
8 16 19 0
8 -16 -19 0
3 16 20 0
3 -16 -20 0
5 16 21 0
5 -16 -21 0
9 16 22 0
9 -16 -22 0
1 16 23 0
1 -16 -23 0
1 16 24 0
1 -16 -24 0
4 16 25 0
4 -16 -25 0
4 16 26 0
4 -16 -26 0
7 16 27 0
7 -16 -27 0
9 16 28 0
9 -16 -28 0
2 16 29 0
2 -16 -29 0
1 16 30 0
1 -16 -30 0
1 16 31 0
1 -16 -31 0
5 16 32 0
5 -16 -32 0
8 16 33 0
8 -16 -33 0
7 16 34 0
7 -16 -34 0
5 16 35 0
5 -16 -35 0
2 16 36 0
2 -16 -36 0
6 16 37 0
6 -16 -37 0
6 16 38 0
6 -16 -38 0
6 16 39 0
6 -16 -39 0
6 16 40 0
6 -16 -40 0
4 16 42 0
4 -16 -42 0
4 16 43 0
4 -16 -43 0
9 17 21 0
9 -17 -21 0
5 17 23 0
5 -17 -23 0
2 17 24 0
2 -17 -24 0
7 17 25 0
7 -17 -25 0
6 17 26 0
6 -17 -26 0
7 17 29 0
7 -17 -29 0
6 17 33 0
6 -17 -33 0
3 17 35 0
3 -17 -35 0
9 17 36 0
9 -17 -36 0
1 17 37 0
1 -17 -37 0
1 17 38 0
1 -17 -38 0
10 17 39 0
10 -17 -39 0
2 17 40 0
2 -17 -40 0
5 17 41 0
5 -17 -41 0
3 17 43 0
3 -17 -43 0
9 18 19 0
9 -18 -19 0
3 18 23 0
3 -18 -23 0
4 18 24 0
4 -18 -24 0
9 18 25 0
9 -18 -25 0
4 18 26 0
4 -18 -26 0
9 18 27 0
9 -18 -27 0
7 18 31 0
7 -18 -31 0
1 18 35 0
1 -18 -35 0
3 18 36 0
3 -18 -36 0
8 18 37 0
8 -18 -37 0
7 18 38 0
7 -18 -38 0
9 18 39 0
9 -18 -39 0
4 18 40 0
4 -18 -40 0
3 18 41 0
3 -18 -41 0
2 18 42 0
2 -18 -42 0
7 19 25 0
7 -19 -25 0
2 19 28 0
2 -19 -28 0
7 19 29 0
7 -19 -29 0
8 19 30 0
8 -19 -30 0
8 19 33 0
8 -19 -33 0
3 19 35 0
3 -19 -35 0
5 19 37 0
5 -19 -37 0
4 19 38 0
4 -19 -38 0
5 19 39 0
5 -19 -39 0
3 19 40 0
3 -19 -40 0
4 19 41 0
4 -19 -41 0
6 19 43 0
6 -19 -43 0
2 20 26 0
2 -20 -26 0
6 20 27 0
6 -20 -27 0
1 20 29 0
1 -20 -29 0
4 20 30 0
4 -20 -30 0
4 20 34 0
4 -20 -34 0
4 20 35 0
4 -20 -35 0
8 20 36 0
8 -20 -36 0
3 20 38 0
3 -20 -38 0
7 20 39 0
7 -20 -39 0
6 20 40 0
6 -20 -40 0
10 20 41 0
10 -20 -41 0
7 21 23 0
7 -21 -23 0
9 21 27 0
9 -21 -27 0
7 21 28 0
7 -21 -28 0
4 21 30 0
4 -21 -30 0
7 21 31 0
7 -21 -31 0
1 21 35 0
1 -21 -35 0
6 21 38 0
6 -21 -38 0
9 21 39 0
9 -21 -39 0
7 21 40 0
7 -21 -40 0
7 21 41 0
7 -21 -41 0
6 21 42 0
6 -21 -42 0
5 22 24 0
5 -22 -24 0
4 22 27 0
4 -22 -27 0
8 22 28 0
8 -22 -28 0
9 22 29 0
9 -22 -29 0
7 22 32 0
7 -22 -32 0
2 22 35 0
2 -22 -35 0
1 22 38 0
1 -22 -38 0
1 22 39 0
1 -22 -39 0
7 22 40 0
7 -22 -40 0
2 22 41 0
2 -22 -41 0
7 23 29 0
7 -23 -29 0
8 23 32 0
8 -23 -32 0
6 23 33 0
6 -23 -33 0
1 23 34 0
1 -23 -34 0
1 23 35 0
1 -23 -35 0
4 23 37 0
4 -23 -37 0
3 23 38 0
3 -23 -38 0
7 23 39 0
7 -23 -39 0
9 23 40 0
9 -23 -40 0
2 23 41 0
2 -23 -41 0
4 23 42 0
4 -23 -42 0
7 23 43 0
7 -23 -43 0
9 24 30 0
9 -24 -30 0
7 24 31 0
7 -24 -31 0
4 24 33 0
4 -24 -33 0
9 24 34 0
9 -24 -34 0
2 24 35 0
2 -24 -35 0
2 24 36 0
2 -24 -36 0
6 24 38 0
6 -24 -38 0
9 24 39 0
9 -24 -39 0
7 24 40 0
7 -24 -40 0
10 24 41 0
10 -24 -41 0
2 24 42 0
2 -24 -42 0
4 24 43 0
4 -24 -43 0
8 25 27 0
8 -25 -27 0
9 25 31 0
9 -25 -31 0
6 25 32 0
6 -25 -32 0
8 25 34 0
8 -25 -34 0
10 25 35 0
10 -25 -35 0
3 25 38 0
3 -25 -38 0
10 25 39 0
10 -25 -39 0
6 25 40 0
6 -25 -40 0
10 25 41 0
10 -25 -41 0
5 25 42 0
5 -25 -42 0
6 25 43 0
6 -25 -43 0
10 26 28 0
10 -26 -28 0
8 26 31 0
8 -26 -31 0
9 26 32 0
9 -26 -32 0
6 26 33 0
6 -26 -33 0
7 26 35 0
7 -26 -35 0
10 26 38 0
10 -26 -38 0
10 26 39 0
10 -26 -39 0
4 26 40 0
4 -26 -40 0
9 26 41 0
9 -26 -41 0
6 26 42 0
6 -26 -42 0
7 26 43 0
7 -26 -43 0
8 27 33 0
8 -27 -33 0
8 27 35 0
8 -27 -35 0
8 27 36 0
8 -27 -36 0
3 27 37 0
3 -27 -37 0
7 27 38 0
7 -27 -38 0
5 27 39 0
5 -27 -39 0
2 27 40 0
2 -27 -40 0
8 27 41 0
8 -27 -41 0
9 27 43 0
9 -27 -43 0
9 28 34 0
9 -28 -34 0
7 28 35 0
7 -28 -35 0
5 28 36 0
5 -28 -36 0
7 28 38 0
7 -28 -38 0
6 28 39 0
6 -28 -39 0
7 28 40 0
7 -28 -40 0
6 28 41 0
6 -28 -41 0
2 29 31 0
2 -29 -31 0
6 29 35 0
6 -29 -35 0
1 29 36 0
1 -29 -36 0
8 29 38 0
8 -29 -38 0
6 29 39 0
6 -29 -39 0
9 29 40 0
9 -29 -40 0
6 29 41 0
6 -29 -41 0
2 29 42 0
2 -29 -42 0
5 30 32 0
5 -30 -32 0
6 30 35 0
6 -30 -35 0
1 30 36 0
1 -30 -36 0
9 30 38 0
9 -30 -38 0
4 30 39 0
4 -30 -39 0
7 30 40 0
7 -30 -40 0
5 30 41 0
5 -30 -41 0
2 31 35 0
2 -31 -35 0
5 31 37 0
5 -31 -37 0
3 31 38 0
3 -31 -38 0
5 31 39 0
5 -31 -39 0
1 31 40 0
1 -31 -40 0
8 31 41 0
8 -31 -41 0
6 31 43 0
6 -31 -43 0
9 32 35 0
9 -32 -35 0
6 32 36 0
6 -32 -36 0
5 32 37 0
5 -32 -37 0
5 32 38 0
5 -32 -38 0
10 32 39 0
10 -32 -39 0
1 32 40 0
1 -32 -40 0
1 32 41 0
1 -32 -41 0
7 33 35 0
7 -33 -35 0
6 33 37 0
6 -33 -37 0
3 33 38 0
3 -33 -38 0
3 33 39 0
3 -33 -39 0
7 33 40 0
7 -33 -40 0
10 33 41 0
10 -33 -41 0
8 33 42 0
8 -33 -42 0
5 34 35 0
5 -34 -35 0
5 34 37 0
5 -34 -37 0
9 34 38 0
9 -34 -38 0
10 34 39 0
10 -34 -39 0
10 34 40 0
10 -34 -40 0
9 34 41 0
9 -34 -41 0
8 35 36 0
8 -35 -36 0
4 35 38 0
4 -35 -38 0
6 35 39 0
6 -35 -39 0
3 35 41 0
3 -35 -41 0
5 35 42 0
5 -35 -42 0
10 35 43 0
10 -35 -43 0
5 36 38 0
5 -36 -38 0
9 36 39 0
9 -36 -39 0
10 36 40 0
10 -36 -40 0
2 36 41 0
2 -36 -41 0
5 37 38 0
5 -37 -38 0
8 37 42 0
8 -37 -42 0
8 37 43 0
8 -37 -43 0
10 38 42 0
10 -38 -42 0
3 38 43 0
3 -38 -43 0
8 39 42 0
8 -39 -42 0
10 39 43 0
10 -39 -43 0
4 40 42 0
4 -40 -42 0
5 40 43 0
5 -40 -43 0
6 41 42 0
6 -41 -42 0
6 41 43 0
6 -41 -43 0
